c nIsolatedPIs 6
c maxPI 26
p cnf 152 379
c gate 27 -13 26 0
-13 -27 0
26 -27 0
13 -26 27 0
c gate 28 12 -25 0
12 -28 0
-25 -28 0
-12 25 28 0
c gate 29 11 -24 0
11 -29 0
-24 -29 0
-11 24 29 0
c gate 30 10 -23 0
10 -30 0
-23 -30 0
-10 23 30 0
c gate 31 9 -22 0
9 -31 0
-22 -31 0
-9 22 31 0
c gate 32 8 -21 0
8 -32 0
-21 -32 0
-8 21 32 0
c gate 33 -8 21 0
-8 -33 0
21 -33 0
8 -21 33 0
c gate 34 7 -20 0
7 -34 0
-20 -34 0
-7 20 34 0
c gate 35 -7 20 0
-7 -35 0
20 -35 0
7 -20 35 0
c gate 36 6 -19 0
6 -36 0
-19 -36 0
-6 19 36 0
c gate 37 -6 19 0
-6 -37 0
19 -37 0
6 -19 37 0
c gate 38 -5 18 0
-5 -38 0
18 -38 0
5 -18 38 0
c gate 39 -1 14 0
-1 -39 0
14 -39 0
1 -14 39 0
c gate 40 -38 -39 0
-38 -40 0
-39 -40 0
38 39 40 0
c gate 41 5 -18 0
5 -41 0
-18 -41 0
-5 18 41 0
c gate 42 -40 -41 0
-40 -42 0
-41 -42 0
40 41 42 0
c gate 43 -37 -42 0
-37 -43 0
-42 -43 0
37 42 43 0
c gate 44 -36 -43 0
-36 -44 0
-43 -44 0
36 43 44 0
c gate 45 -35 -44 0
-35 -45 0
-44 -45 0
35 44 45 0
c gate 46 -34 -45 0
-34 -46 0
-45 -46 0
34 45 46 0
c gate 47 -33 -46 0
-33 -47 0
-46 -47 0
33 46 47 0
c gate 48 -32 -47 0
-32 -48 0
-47 -48 0
32 47 48 0
c gate 49 -31 48 0
-31 -49 0
48 -49 0
31 -48 49 0
c gate 50 -9 22 0
-9 -50 0
22 -50 0
9 -22 50 0
c gate 51 -10 23 0
-10 -51 0
23 -51 0
10 -23 51 0
c gate 52 -50 -51 0
-50 -52 0
-51 -52 0
50 51 52 0
c gate 53 -49 52 0
-49 -53 0
52 -53 0
49 -52 53 0
c gate 54 -30 -53 0
-30 -54 0
-53 -54 0
30 53 54 0
c gate 55 -29 54 0
-29 -55 0
54 -55 0
29 -54 55 0
c gate 56 -12 25 0
-12 -56 0
25 -56 0
12 -25 56 0
c gate 57 -11 24 0
-11 -57 0
24 -57 0
11 -24 57 0
c gate 58 -56 -57 0
-56 -58 0
-57 -58 0
56 57 58 0
c gate 59 -55 58 0
-55 -59 0
58 -59 0
55 -58 59 0
c gate 60 -28 -59 0
-28 -60 0
-59 -60 0
28 59 60 0
c gate 61 -27 -60 0
-27 -61 0
-60 -61 0
27 60 61 0
c gate 62 13 -26 0
13 -62 0
-26 -62 0
-13 26 62 0
c gate 63 -27 -62 0
-27 -63 0
-62 -63 0
27 62 63 0
c gate 64 -28 -29 0
-28 -64 0
-29 -64 0
28 29 64 0
c gate 65 -56 -64 0
-56 -65 0
-64 -65 0
56 64 65 0
c gate 66 63 65 0
63 -66 0
65 -66 0
-63 -65 66 0
c gate 67 2 15 0
2 -67 0
15 -67 0
-2 -15 67 0
c gate 68 -2 -15 0
-2 -68 0
-15 -68 0
2 15 68 0
c gate 69 -67 -68 0
-67 -69 0
-68 -69 0
67 68 69 0
c gate 70 -66 69 0
-66 -70 0
69 -70 0
66 -69 70 0
c gate 71 -61 70 0
-61 -71 0
70 -71 0
61 -70 71 0
c gate 72 61 -70 0
61 -72 0
-70 -72 0
-61 70 72 0
c gate 73 -62 -72 0
-62 -73 0
-72 -73 0
62 72 73 0
c gate 74 -71 73 0
-71 -74 0
73 -74 0
71 -73 74 0
c gate 75 -13 -26 0
-13 -75 0
-26 -75 0
13 26 75 0
c gate 76 -12 -25 0
-12 -76 0
-25 -76 0
12 25 76 0
c gate 77 -11 -24 0
-11 -77 0
-24 -77 0
11 24 77 0
c gate 78 -8 -21 0
-8 -78 0
-21 -78 0
8 21 78 0
c gate 79 -5 -18 0
-5 -79 0
-18 -79 0
5 18 79 0
c gate 80 6 19 0
6 -80 0
19 -80 0
-6 -19 80 0
c gate 81 79 -80 0
79 -81 0
-80 -81 0
-79 80 81 0
c gate 82 1 14 0
1 -82 0
14 -82 0
-1 -14 82 0
c gate 83 5 18 0
5 -83 0
18 -83 0
-5 -18 83 0
c gate 84 -80 -83 0
-80 -84 0
-83 -84 0
80 83 84 0
c gate 85 -82 84 0
-82 -85 0
84 -85 0
82 -84 85 0
c gate 86 -7 -20 0
-7 -86 0
-20 -86 0
7 20 86 0
c gate 87 -6 -19 0
-6 -87 0
-19 -87 0
6 19 87 0
c gate 88 -86 -87 0
-86 -88 0
-87 -88 0
86 87 88 0
c gate 89 -85 88 0
-85 -89 0
88 -89 0
85 -88 89 0
c gate 90 -81 89 0
-81 -90 0
89 -90 0
81 -89 90 0
c gate 91 8 21 0
8 -91 0
21 -91 0
-8 -21 91 0
c gate 92 7 20 0
7 -92 0
20 -92 0
-7 -20 92 0
c gate 93 -91 -92 0
-91 -93 0
-92 -93 0
91 92 93 0
c gate 94 -90 93 0
-90 -94 0
93 -94 0
90 -93 94 0
c gate 95 -78 -94 0
-78 -95 0
-94 -95 0
78 94 95 0
c gate 96 -31 -50 0
-31 -96 0
-50 -96 0
31 50 96 0
c gate 97 -95 -96 0
-95 -97 0
-96 -97 0
95 96 97 0
c gate 98 -10 -23 0
-10 -98 0
-23 -98 0
10 23 98 0
c gate 99 -9 -22 0
-9 -99 0
-22 -99 0
9 22 99 0
c gate 100 -98 -99 0
-98 -100 0
-99 -100 0
98 99 100 0
c gate 101 -97 100 0
-97 -101 0
100 -101 0
97 -100 101 0
c gate 102 11 24 0
11 -102 0
24 -102 0
-11 -24 102 0
c gate 103 10 23 0
10 -103 0
23 -103 0
-10 -23 103 0
c gate 104 -102 -103 0
-102 -104 0
-103 -104 0
102 103 104 0
c gate 105 -101 104 0
-101 -105 0
104 -105 0
101 -104 105 0
c gate 106 -77 -105 0
-77 -106 0
-105 -106 0
77 105 106 0
c gate 107 12 25 0
12 -107 0
25 -107 0
-12 -25 107 0
c gate 108 -106 -107 0
-106 -108 0
-107 -108 0
106 107 108 0
c gate 109 -76 -108 0
-76 -109 0
-108 -109 0
76 108 109 0
c gate 110 -75 109 0
-75 -110 0
109 -110 0
75 -109 110 0
c gate 111 13 26 0
13 -111 0
26 -111 0
-13 -26 111 0
c gate 112 -67 -111 0
-67 -112 0
-111 -112 0
67 111 112 0
c gate 113 -110 112 0
-110 -113 0
112 -113 0
110 -112 113 0
c gate 114 -3 -16 0
-3 -114 0
-16 -114 0
3 16 114 0
c gate 115 3 16 0
3 -115 0
16 -115 0
-3 -16 115 0
c gate 116 -68 -115 0
-68 -116 0
-115 -116 0
68 115 116 0
c gate 117 -114 116 0
-114 -117 0
116 -117 0
114 -116 117 0
c gate 118 -113 117 0
-113 -118 0
117 -118 0
113 -117 118 0
c gate 119 59 64 0
59 -119 0
64 -119 0
-59 -64 119 0
c gate 120 -77 -98 0
-77 -120 0
-98 -120 0
77 98 120 0
c gate 121 -102 -120 0
-102 -121 0
-120 -121 0
102 120 121 0
c gate 122 -76 -121 0
-76 -122 0
-121 -122 0
76 121 122 0
c gate 123 -107 -122 0
-107 -123 0
-122 -123 0
107 122 123 0
c gate 124 -63 -123 0
-63 -124 0
-123 -124 0
63 123 124 0
c gate 125 -109 124 0
-109 -125 0
124 -125 0
109 -124 125 0
c gate 126 -30 -31 0
-30 -126 0
-31 -126 0
30 31 126 0
c gate 127 -51 -77 0
-51 -127 0
-77 -127 0
51 77 127 0
c gate 128 -102 127 0
-102 -128 0
127 -128 0
102 -127 128 0
c gate 129 -126 128 0
-126 -129 0
128 -129 0
126 -128 129 0
c gate 130 -54 -129 0
-54 -130 0
-129 -130 0
54 129 130 0
c gate 131 108 122 0
108 -131 0
122 -131 0
-108 -122 131 0
c gate 132 105 -121 0
105 -132 0
-121 -132 0
-105 121 132 0
c gate 133 -48 96 0
-48 -133 0
96 -133 0
48 -96 133 0
c gate 134 -78 89 0
-78 -134 0
89 -134 0
78 -89 134 0
c gate 135 94 134 0
94 -135 0
134 -135 0
-94 -134 135 0
c gate 136 -30 -51 0
-30 -136 0
-51 -136 0
30 51 136 0
c gate 137 99 -136 0
99 -137 0
-136 -137 0
-99 136 137 0
c gate 138 79 82 0
79 -138 0
82 -138 0
-79 -82 138 0
c gate 139 -4 -17 0
-4 -139 0
-17 -139 0
4 17 139 0
c gate 140 115 139 0
115 -140 0
139 -140 0
-115 -139 140 0
c gate 141 -138 -140 0
-138 -141 0
-140 -141 0
138 140 141 0
c gate 142 -137 141 0
-137 -142 0
141 -142 0
137 -141 142 0
c gate 143 -135 142 0
-135 -143 0
142 -143 0
135 -142 143 0
c gate 144 -97 143 0
-97 -144 0
143 -144 0
97 -143 144 0
c gate 145 -133 144 0
-133 -145 0
144 -145 0
133 -144 145 0
c gate 146 -132 145 0
-132 -146 0
145 -146 0
132 -145 146 0
c gate 147 -131 146 0
-131 -147 0
146 -147 0
131 -146 147 0
c gate 148 -130 147 0
-130 -148 0
147 -148 0
130 -147 148 0
c gate 149 -125 148 0
-125 -149 0
148 -149 0
125 -148 149 0
c gate 150 -119 149 0
-119 -150 0
149 -150 0
119 -149 150 0
c gate 151 -118 150 0
-118 -151 0
150 -151 0
118 -150 151 0
c gate 152 -74 151 0
-74 -152 0
151 -152 0
74 -151 152 0
c PO
-152 0
